c
c Generated WCNF file
c
p wcnf 16 61 13400
13400 6 0
13400 -7 1 0
13400 -7 2 0
13400 7 -1 -2 0
13400 -8 1 0
13400 -8 3 0
13400 8 -1 -3 0
13400 -9 1 0
13400 -9 4 0
13400 9 -1 -4 0
13400 -10 1 0
13400 -10 5 0
13400 10 -1 -5 0
13400 -11 2 0
13400 -11 3 0
13400 11 -2 -3 0
13400 -12 2 0
13400 -12 4 0
13400 12 -2 -4 0
13400 -13 2 0
13400 -13 5 0
13400 13 -2 -5 0
13400 -14 3 0
13400 -14 4 0
13400 14 -3 -4 0
13400 -15 3 0
13400 -15 5 0
13400 15 -3 -5 0
13400 -16 4 0
13400 -16 5 0
13400 16 -4 -5 0
22966 1 0
13390 -1 0
14250 7 0
13390 -7 0
8158 8 0
13390 -8 0
10460 9 0
13390 -9 0
14170 10 0
13390 -10 0
3887 2 0
13390 -2 0
10310 11 0
13390 -11 0
18142 12 0
13390 -12 0
11102 13 0
13390 -13 0
12190 3 0
13390 -3 0
15382 14 0
13390 -14 0
11102 15 0
13390 -15 0
18203 4 0
13390 -4 0
15418 16 0
13390 -16 0
9958 5 0
13390 -5 0
